; benchmark generated from python API
(set-info :status unknown)
(declare-fun cell_1_8 () Int)
(declare-fun cell_2_2 () Int)
(declare-fun cell_3_4 () Int)
(declare-fun cell_4_9 () Int)
(declare-fun cell_5_1 () Int)
(declare-fun cell_1_1 () Int)
(declare-fun cell_2_1 () Int)
(declare-fun cell_3_1 () Int)
(declare-fun cell_4_1 () Int)
(declare-fun cell_6_1 () Int)
(declare-fun cell_7_1 () Int)
(declare-fun cell_8_1 () Int)
(declare-fun cell_9_1 () Int)
(declare-fun cell_1_2 () Int)
(declare-fun cell_3_2 () Int)
(declare-fun cell_4_2 () Int)
(declare-fun cell_5_2 () Int)
(declare-fun cell_6_2 () Int)
(declare-fun cell_7_2 () Int)
(declare-fun cell_8_2 () Int)
(declare-fun cell_9_2 () Int)
(declare-fun cell_1_3 () Int)
(declare-fun cell_2_3 () Int)
(declare-fun cell_3_3 () Int)
(declare-fun cell_4_3 () Int)
(declare-fun cell_5_3 () Int)
(declare-fun cell_6_3 () Int)
(declare-fun cell_7_3 () Int)
(declare-fun cell_8_3 () Int)
(declare-fun cell_9_3 () Int)
(declare-fun cell_1_4 () Int)
(declare-fun cell_2_4 () Int)
(declare-fun cell_4_4 () Int)
(declare-fun cell_5_4 () Int)
(declare-fun cell_6_4 () Int)
(declare-fun cell_7_4 () Int)
(declare-fun cell_8_4 () Int)
(declare-fun cell_9_4 () Int)
(declare-fun cell_1_5 () Int)
(declare-fun cell_2_5 () Int)
(declare-fun cell_3_5 () Int)
(declare-fun cell_4_5 () Int)
(declare-fun cell_5_5 () Int)
(declare-fun cell_6_5 () Int)
(declare-fun cell_7_5 () Int)
(declare-fun cell_8_5 () Int)
(declare-fun cell_9_5 () Int)
(declare-fun cell_1_6 () Int)
(declare-fun cell_2_6 () Int)
(declare-fun cell_3_6 () Int)
(declare-fun cell_4_6 () Int)
(declare-fun cell_5_6 () Int)
(declare-fun cell_6_6 () Int)
(declare-fun cell_7_6 () Int)
(declare-fun cell_8_6 () Int)
(declare-fun cell_9_6 () Int)
(declare-fun cell_1_7 () Int)
(declare-fun cell_2_7 () Int)
(declare-fun cell_3_7 () Int)
(declare-fun cell_4_7 () Int)
(declare-fun cell_5_7 () Int)
(declare-fun cell_6_7 () Int)
(declare-fun cell_7_7 () Int)
(declare-fun cell_8_7 () Int)
(declare-fun cell_9_7 () Int)
(declare-fun cell_2_8 () Int)
(declare-fun cell_3_8 () Int)
(declare-fun cell_4_8 () Int)
(declare-fun cell_5_8 () Int)
(declare-fun cell_6_8 () Int)
(declare-fun cell_7_8 () Int)
(declare-fun cell_8_8 () Int)
(declare-fun cell_9_8 () Int)
(declare-fun cell_1_9 () Int)
(declare-fun cell_2_9 () Int)
(declare-fun cell_3_9 () Int)
(declare-fun cell_5_9 () Int)
(declare-fun cell_6_9 () Int)
(declare-fun cell_7_9 () Int)
(declare-fun cell_8_9 () Int)
(declare-fun cell_9_9 () Int)
(assert
 (= cell_1_8 1))
(assert
 (= cell_2_2 1))
(assert
 (= cell_3_4 1))
(assert
 (= cell_4_9 1))
(assert
 (= cell_5_1 1))
(assert
 (let (($x34 (= cell_1_1 9)))
 (let (($x2421 (= cell_1_1 8)))
 (let (($x560 (= cell_1_1 7)))
 (let (($x6600 (= cell_1_1 6)))
 (let (($x1622 (= cell_1_1 5)))
 (let (($x1862 (= cell_1_1 4)))
 (let (($x3308 (= cell_1_1 3)))
 (let (($x1530 (= cell_1_1 2)))
 (let (($x630 (= cell_1_1 1)))
 (or $x630 $x1530 $x3308 $x1862 $x1622 $x6600 $x560 $x2421 $x34)))))))))))
(assert
 (let (($x1043 (= cell_2_1 9)))
 (let (($x5915 (= cell_2_1 8)))
 (let (($x3625 (= cell_2_1 7)))
 (let (($x2910 (= cell_2_1 6)))
 (let (($x851 (= cell_2_1 5)))
 (let (($x2554 (= cell_2_1 4)))
 (let (($x5958 (= cell_2_1 3)))
 (let (($x3644 (= cell_2_1 2)))
 (let (($x399 (= cell_2_1 1)))
 (or $x399 $x3644 $x5958 $x2554 $x851 $x2910 $x3625 $x5915 $x1043)))))))))))
(assert
 (let (($x5166 (= cell_3_1 9)))
 (let (($x478 (= cell_3_1 8)))
 (let (($x1561 (= cell_3_1 7)))
 (let (($x2648 (= cell_3_1 6)))
 (let (($x2317 (= cell_3_1 5)))
 (let (($x2415 (= cell_3_1 4)))
 (let (($x3066 (= cell_3_1 3)))
 (let (($x6364 (= cell_3_1 2)))
 (let (($x5023 (= cell_3_1 1)))
 (or $x5023 $x6364 $x3066 $x2415 $x2317 $x2648 $x1561 $x478 $x5166)))))))))))
(assert
 (let (($x49 (= cell_4_1 9)))
 (let (($x6007 (= cell_4_1 8)))
 (let (($x394 (= cell_4_1 7)))
 (let (($x594 (= cell_4_1 6)))
 (let (($x3928 (= cell_4_1 5)))
 (let (($x6220 (= cell_4_1 4)))
 (let (($x6743 (= cell_4_1 3)))
 (let (($x6065 (= cell_4_1 2)))
 (let (($x2724 (= cell_4_1 1)))
 (or $x2724 $x6065 $x6743 $x6220 $x3928 $x594 $x394 $x6007 $x49)))))))))))
(assert
 (let (($x3952 (= cell_5_1 1)))
 (or $x3952 (= cell_5_1 2) (= cell_5_1 3) (= cell_5_1 4) (= cell_5_1 5) (= cell_5_1 6) (= cell_5_1 7) (= cell_5_1 8) (= cell_5_1 9))))
(assert
 (let (($x2002 (= cell_6_1 1)))
 (or $x2002 (= cell_6_1 2) (= cell_6_1 3) (= cell_6_1 4) (= cell_6_1 5) (= cell_6_1 6) (= cell_6_1 7) (= cell_6_1 8) (= cell_6_1 9))))
(assert
 (let (($x3570 (= cell_7_1 1)))
 (or $x3570 (= cell_7_1 2) (= cell_7_1 3) (= cell_7_1 4) (= cell_7_1 5) (= cell_7_1 6) (= cell_7_1 7) (= cell_7_1 8) (= cell_7_1 9))))
(assert
 (let (($x1110 (= cell_8_1 1)))
 (or $x1110 (= cell_8_1 2) (= cell_8_1 3) (= cell_8_1 4) (= cell_8_1 5) (= cell_8_1 6) (= cell_8_1 7) (= cell_8_1 8) (= cell_8_1 9))))
(assert
 (let (($x1474 (= cell_9_1 1)))
 (or $x1474 (= cell_9_1 2) (= cell_9_1 3) (= cell_9_1 4) (= cell_9_1 5) (= cell_9_1 6) (= cell_9_1 7) (= cell_9_1 8) (= cell_9_1 9))))
(assert
 (let (($x6568 (= cell_1_2 9)))
 (let (($x817 (= cell_1_2 8)))
 (let (($x4970 (= cell_1_2 7)))
 (let (($x5240 (= cell_1_2 6)))
 (let (($x1114 (= cell_1_2 5)))
 (let (($x1186 (= cell_1_2 4)))
 (let (($x3712 (= cell_1_2 3)))
 (let (($x3013 (= cell_1_2 2)))
 (let (($x5262 (= cell_1_2 1)))
 (or $x5262 $x3013 $x3712 $x1186 $x1114 $x5240 $x4970 $x817 $x6568)))))))))))
(assert
 (let (($x1924 (= cell_2_2 1)))
 (or $x1924 (= cell_2_2 2) (= cell_2_2 3) (= cell_2_2 4) (= cell_2_2 5) (= cell_2_2 6) (= cell_2_2 7) (= cell_2_2 8) (= cell_2_2 9))))
(assert
 (let (($x3429 (= cell_3_2 9)))
 (let (($x4875 (= cell_3_2 8)))
 (let (($x5113 (= cell_3_2 7)))
 (let (($x1300 (= cell_3_2 6)))
 (let (($x844 (= cell_3_2 5)))
 (let (($x247 (= cell_3_2 4)))
 (let (($x1788 (= cell_3_2 3)))
 (let (($x1883 (= cell_3_2 2)))
 (let (($x4874 (= cell_3_2 1)))
 (or $x4874 $x1883 $x1788 $x247 $x844 $x1300 $x5113 $x4875 $x3429)))))))))))
(assert
 (let (($x1518 (= cell_4_2 9)))
 (let (($x535 (= cell_4_2 8)))
 (let (($x1376 (= cell_4_2 7)))
 (let (($x223 (= cell_4_2 6)))
 (let (($x4968 (= cell_4_2 5)))
 (let (($x4974 (= cell_4_2 4)))
 (let (($x1871 (= cell_4_2 3)))
 (let (($x4894 (= cell_4_2 2)))
 (let (($x5151 (= cell_4_2 1)))
 (or $x5151 $x4894 $x1871 $x4974 $x4968 $x223 $x1376 $x535 $x1518)))))))))))
(assert
 (let (($x2739 (= cell_5_2 1)))
 (or $x2739 (= cell_5_2 2) (= cell_5_2 3) (= cell_5_2 4) (= cell_5_2 5) (= cell_5_2 6) (= cell_5_2 7) (= cell_5_2 8) (= cell_5_2 9))))
(assert
 (let (($x915 (= cell_6_2 1)))
 (or $x915 (= cell_6_2 2) (= cell_6_2 3) (= cell_6_2 4) (= cell_6_2 5) (= cell_6_2 6) (= cell_6_2 7) (= cell_6_2 8) (= cell_6_2 9))))
(assert
 (let (($x5728 (= cell_7_2 1)))
 (or $x5728 (= cell_7_2 2) (= cell_7_2 3) (= cell_7_2 4) (= cell_7_2 5) (= cell_7_2 6) (= cell_7_2 7) (= cell_7_2 8) (= cell_7_2 9))))
(assert
 (let (($x1256 (= cell_8_2 1)))
 (or $x1256 (= cell_8_2 2) (= cell_8_2 3) (= cell_8_2 4) (= cell_8_2 5) (= cell_8_2 6) (= cell_8_2 7) (= cell_8_2 8) (= cell_8_2 9))))
(assert
 (let (($x4752 (= cell_9_2 1)))
 (or $x4752 (= cell_9_2 2) (= cell_9_2 3) (= cell_9_2 4) (= cell_9_2 5) (= cell_9_2 6) (= cell_9_2 7) (= cell_9_2 8) (= cell_9_2 9))))
(assert
 (let (($x1155 (= cell_1_3 9)))
 (let (($x4993 (= cell_1_3 8)))
 (let (($x3595 (= cell_1_3 7)))
 (let (($x2669 (= cell_1_3 6)))
 (let (($x6075 (= cell_1_3 5)))
 (let (($x1303 (= cell_1_3 4)))
 (let (($x3475 (= cell_1_3 3)))
 (let (($x5177 (= cell_1_3 2)))
 (let (($x2509 (= cell_1_3 1)))
 (or $x2509 $x5177 $x3475 $x1303 $x6075 $x2669 $x3595 $x4993 $x1155)))))))))))
(assert
 (let (($x3251 (= cell_2_3 9)))
 (let (($x305 (= cell_2_3 8)))
 (let (($x6085 (= cell_2_3 7)))
 (let (($x4777 (= cell_2_3 6)))
 (let (($x2595 (= cell_2_3 5)))
 (let (($x1908 (= cell_2_3 4)))
 (let (($x3742 (= cell_2_3 3)))
 (let (($x1325 (= cell_2_3 2)))
 (let (($x6526 (= cell_2_3 1)))
 (or $x6526 $x1325 $x3742 $x1908 $x2595 $x4777 $x6085 $x305 $x3251)))))))))))
(assert
 (let (($x6578 (= cell_3_3 9)))
 (let (($x3578 (= cell_3_3 8)))
 (let (($x5612 (= cell_3_3 7)))
 (let (($x252 (= cell_3_3 6)))
 (let (($x1124 (= cell_3_3 5)))
 (let (($x6087 (= cell_3_3 4)))
 (let (($x3861 (= cell_3_3 3)))
 (let (($x5650 (= cell_3_3 2)))
 (let (($x5556 (= cell_3_3 1)))
 (or $x5556 $x5650 $x3861 $x6087 $x1124 $x252 $x5612 $x3578 $x6578)))))))))))
(assert
 (let (($x2173 (= cell_4_3 9)))
 (let (($x3193 (= cell_4_3 8)))
 (let (($x2160 (= cell_4_3 7)))
 (let (($x2397 (= cell_4_3 6)))
 (let (($x1722 (= cell_4_3 5)))
 (let (($x1211 (= cell_4_3 4)))
 (let (($x2758 (= cell_4_3 3)))
 (let (($x2518 (= cell_4_3 2)))
 (let (($x1377 (= cell_4_3 1)))
 (or $x1377 $x2518 $x2758 $x1211 $x1722 $x2397 $x2160 $x3193 $x2173)))))))))))
(assert
 (let (($x3800 (= cell_5_3 1)))
 (or $x3800 (= cell_5_3 2) (= cell_5_3 3) (= cell_5_3 4) (= cell_5_3 5) (= cell_5_3 6) (= cell_5_3 7) (= cell_5_3 8) (= cell_5_3 9))))
(assert
 (let (($x5247 (= cell_6_3 1)))
 (or $x5247 (= cell_6_3 2) (= cell_6_3 3) (= cell_6_3 4) (= cell_6_3 5) (= cell_6_3 6) (= cell_6_3 7) (= cell_6_3 8) (= cell_6_3 9))))
(assert
 (let (($x2267 (= cell_7_3 1)))
 (or $x2267 (= cell_7_3 2) (= cell_7_3 3) (= cell_7_3 4) (= cell_7_3 5) (= cell_7_3 6) (= cell_7_3 7) (= cell_7_3 8) (= cell_7_3 9))))
(assert
 (or (= cell_8_3 1) (= cell_8_3 2) (= cell_8_3 3) (= cell_8_3 4) (= cell_8_3 5) (= cell_8_3 6) (= cell_8_3 7) (= cell_8_3 8) (= cell_8_3 9)))
(assert
 (or (= cell_9_3 1) (= cell_9_3 2) (= cell_9_3 3) (= cell_9_3 4) (= cell_9_3 5) (= cell_9_3 6) (= cell_9_3 7) (= cell_9_3 8) (= cell_9_3 9)))
(assert
 (let (($x2156 (= cell_1_4 9)))
 (let (($x3516 (= cell_1_4 8)))
 (let (($x3805 (= cell_1_4 7)))
 (let (($x2784 (= cell_1_4 6)))
 (let (($x1223 (= cell_1_4 5)))
 (let (($x2884 (= cell_1_4 4)))
 (let (($x3407 (= cell_1_4 3)))
 (let (($x786 (= cell_1_4 2)))
 (let (($x2559 (= cell_1_4 1)))
 (or $x2559 $x786 $x3407 $x2884 $x1223 $x2784 $x3805 $x3516 $x2156)))))))))))
(assert
 (let (($x4749 (= cell_2_4 9)))
 (let (($x2480 (= cell_2_4 8)))
 (let (($x3378 (= cell_2_4 7)))
 (let (($x2172 (= cell_2_4 6)))
 (let (($x5022 (= cell_2_4 5)))
 (let (($x813 (= cell_2_4 4)))
 (let (($x3737 (= cell_2_4 3)))
 (let (($x2146 (= cell_2_4 2)))
 (let (($x5274 (= cell_2_4 1)))
 (or $x5274 $x2146 $x3737 $x813 $x5022 $x2172 $x3378 $x2480 $x4749)))))))))))
(assert
 (let (($x3587 (= cell_3_4 1)))
 (or $x3587 (= cell_3_4 2) (= cell_3_4 3) (= cell_3_4 4) (= cell_3_4 5) (= cell_3_4 6) (= cell_3_4 7) (= cell_3_4 8) (= cell_3_4 9))))
(assert
 (let (($x3593 (= cell_4_4 9)))
 (let (($x5416 (= cell_4_4 8)))
 (let (($x2587 (= cell_4_4 7)))
 (let (($x3597 (= cell_4_4 6)))
 (let (($x2228 (= cell_4_4 5)))
 (let (($x3395 (= cell_4_4 4)))
 (let (($x1397 (= cell_4_4 3)))
 (let (($x1766 (= cell_4_4 2)))
 (let (($x5531 (= cell_4_4 1)))
 (or $x5531 $x1766 $x1397 $x3395 $x2228 $x3597 $x2587 $x5416 $x3593)))))))))))
(assert
 (let (($x4640 (= cell_5_4 1)))
 (or $x4640 (= cell_5_4 2) (= cell_5_4 3) (= cell_5_4 4) (= cell_5_4 5) (= cell_5_4 6) (= cell_5_4 7) (= cell_5_4 8) (= cell_5_4 9))))
(assert
 (let (($x5797 (= cell_6_4 1)))
 (or $x5797 (= cell_6_4 2) (= cell_6_4 3) (= cell_6_4 4) (= cell_6_4 5) (= cell_6_4 6) (= cell_6_4 7) (= cell_6_4 8) (= cell_6_4 9))))
(assert
 (let (($x2381 (= cell_7_4 1)))
 (or $x2381 (= cell_7_4 2) (= cell_7_4 3) (= cell_7_4 4) (= cell_7_4 5) (= cell_7_4 6) (= cell_7_4 7) (= cell_7_4 8) (= cell_7_4 9))))
(assert
 (let (($x1541 (= cell_8_4 1)))
 (or $x1541 (= cell_8_4 2) (= cell_8_4 3) (= cell_8_4 4) (= cell_8_4 5) (= cell_8_4 6) (= cell_8_4 7) (= cell_8_4 8) (= cell_8_4 9))))
(assert
 (let (($x3685 (= cell_9_4 1)))
 (or $x3685 (= cell_9_4 2) (= cell_9_4 3) (= cell_9_4 4) (= cell_9_4 5) (= cell_9_4 6) (= cell_9_4 7) (= cell_9_4 8) (= cell_9_4 9))))
(assert
 (let (($x3834 (= cell_1_5 9)))
 (let (($x4716 (= cell_1_5 8)))
 (let (($x3628 (= cell_1_5 7)))
 (let (($x3130 (= cell_1_5 6)))
 (let (($x149 (= cell_1_5 5)))
 (let (($x6117 (= cell_1_5 4)))
 (let (($x3433 (= cell_1_5 3)))
 (let (($x3741 (= cell_1_5 2)))
 (let (($x6278 (= cell_1_5 1)))
 (or $x6278 $x3741 $x3433 $x6117 $x149 $x3130 $x3628 $x4716 $x3834)))))))))))
(assert
 (let (($x746 (= cell_2_5 9)))
 (let (($x2524 (= cell_2_5 8)))
 (let (($x739 (= cell_2_5 7)))
 (let (($x3579 (= cell_2_5 6)))
 (let (($x291 (= cell_2_5 5)))
 (let (($x2411 (= cell_2_5 4)))
 (let (($x1190 (= cell_2_5 3)))
 (let (($x2229 (= cell_2_5 2)))
 (let (($x2868 (= cell_2_5 1)))
 (or $x2868 $x2229 $x1190 $x2411 $x291 $x3579 $x739 $x2524 $x746)))))))))))
(assert
 (let (($x2095 (= cell_3_5 1)))
 (or $x2095 (= cell_3_5 2) (= cell_3_5 3) (= cell_3_5 4) (= cell_3_5 5) (= cell_3_5 6) (= cell_3_5 7) (= cell_3_5 8) (= cell_3_5 9))))
(assert
 (let (($x3397 (= cell_4_5 9)))
 (let (($x3893 (= cell_4_5 8)))
 (let (($x3883 (= cell_4_5 7)))
 (let (($x665 (= cell_4_5 6)))
 (let (($x1993 (= cell_4_5 5)))
 (let (($x503 (= cell_4_5 4)))
 (let (($x329 (= cell_4_5 3)))
 (let (($x3657 (= cell_4_5 2)))
 (let (($x4960 (= cell_4_5 1)))
 (or $x4960 $x3657 $x329 $x503 $x1993 $x665 $x3883 $x3893 $x3397)))))))))))
(assert
 (let (($x5406 (= cell_5_5 1)))
 (or $x5406 (= cell_5_5 2) (= cell_5_5 3) (= cell_5_5 4) (= cell_5_5 5) (= cell_5_5 6) (= cell_5_5 7) (= cell_5_5 8) (= cell_5_5 9))))
(assert
 (let (($x5069 (= cell_6_5 1)))
 (or $x5069 (= cell_6_5 2) (= cell_6_5 3) (= cell_6_5 4) (= cell_6_5 5) (= cell_6_5 6) (= cell_6_5 7) (= cell_6_5 8) (= cell_6_5 9))))
(assert
 (or (= cell_7_5 1) (= cell_7_5 2) (= cell_7_5 3) (= cell_7_5 4) (= cell_7_5 5) (= cell_7_5 6) (= cell_7_5 7) (= cell_7_5 8) (= cell_7_5 9)))
(assert
 (or (= cell_8_5 1) (= cell_8_5 2) (= cell_8_5 3) (= cell_8_5 4) (= cell_8_5 5) (= cell_8_5 6) (= cell_8_5 7) (= cell_8_5 8) (= cell_8_5 9)))
(assert
 (or (= cell_9_5 1) (= cell_9_5 2) (= cell_9_5 3) (= cell_9_5 4) (= cell_9_5 5) (= cell_9_5 6) (= cell_9_5 7) (= cell_9_5 8) (= cell_9_5 9)))
(assert
 (let (($x775 (= cell_1_6 9)))
 (let (($x1772 (= cell_1_6 8)))
 (let (($x1394 (= cell_1_6 7)))
 (let (($x5886 (= cell_1_6 6)))
 (let (($x52 (= cell_1_6 5)))
 (let (($x6408 (= cell_1_6 4)))
 (let (($x1371 (= cell_1_6 3)))
 (let (($x5512 (= cell_1_6 2)))
 (let (($x6709 (= cell_1_6 1)))
 (or $x6709 $x5512 $x1371 $x6408 $x52 $x5886 $x1394 $x1772 $x775)))))))))))
(assert
 (let (($x1532 (= cell_2_6 9)))
 (let (($x5372 (= cell_2_6 8)))
 (let (($x2747 (= cell_2_6 7)))
 (let (($x100 (= cell_2_6 6)))
 (let (($x2194 (= cell_2_6 5)))
 (let (($x6407 (= cell_2_6 4)))
 (let (($x6385 (= cell_2_6 3)))
 (let (($x3266 (= cell_2_6 2)))
 (let (($x1521 (= cell_2_6 1)))
 (or $x1521 $x3266 $x6385 $x6407 $x2194 $x100 $x2747 $x5372 $x1532)))))))))))
(assert
 (let (($x1258 (= cell_3_6 1)))
 (or $x1258 (= cell_3_6 2) (= cell_3_6 3) (= cell_3_6 4) (= cell_3_6 5) (= cell_3_6 6) (= cell_3_6 7) (= cell_3_6 8) (= cell_3_6 9))))
(assert
 (let (($x704 (= cell_4_6 9)))
 (let (($x3708 (= cell_4_6 8)))
 (let (($x5268 (= cell_4_6 7)))
 (let (($x1892 (= cell_4_6 6)))
 (let (($x5826 (= cell_4_6 5)))
 (let (($x496 (= cell_4_6 4)))
 (let (($x4938 (= cell_4_6 3)))
 (let (($x386 (= cell_4_6 2)))
 (let (($x2782 (= cell_4_6 1)))
 (or $x2782 $x386 $x4938 $x496 $x5826 $x1892 $x5268 $x3708 $x704)))))))))))
(assert
 (let (($x1832 (= cell_5_6 1)))
 (or $x1832 (= cell_5_6 2) (= cell_5_6 3) (= cell_5_6 4) (= cell_5_6 5) (= cell_5_6 6) (= cell_5_6 7) (= cell_5_6 8) (= cell_5_6 9))))
(assert
 (or (= cell_6_6 1) (= cell_6_6 2) (= cell_6_6 3) (= cell_6_6 4) (= cell_6_6 5) (= cell_6_6 6) (= cell_6_6 7) (= cell_6_6 8) (= cell_6_6 9)))
(assert
 (or (= cell_7_6 1) (= cell_7_6 2) (= cell_7_6 3) (= cell_7_6 4) (= cell_7_6 5) (= cell_7_6 6) (= cell_7_6 7) (= cell_7_6 8) (= cell_7_6 9)))
(assert
 (or (= cell_8_6 1) (= cell_8_6 2) (= cell_8_6 3) (= cell_8_6 4) (= cell_8_6 5) (= cell_8_6 6) (= cell_8_6 7) (= cell_8_6 8) (= cell_8_6 9)))
(assert
 (or (= cell_9_6 1) (= cell_9_6 2) (= cell_9_6 3) (= cell_9_6 4) (= cell_9_6 5) (= cell_9_6 6) (= cell_9_6 7) (= cell_9_6 8) (= cell_9_6 9)))
(assert
 (let (($x5628 (= cell_1_7 9)))
 (let (($x3917 (= cell_1_7 8)))
 (let (($x3996 (= cell_1_7 7)))
 (let (($x2555 (= cell_1_7 6)))
 (let (($x3778 (= cell_1_7 5)))
 (let (($x3864 (= cell_1_7 4)))
 (let (($x5784 (= cell_1_7 3)))
 (let (($x839 (= cell_1_7 2)))
 (let (($x2355 (= cell_1_7 1)))
 (or $x2355 $x839 $x5784 $x3864 $x3778 $x2555 $x3996 $x3917 $x5628)))))))))))
(assert
 (let (($x4734 (= cell_2_7 1)))
 (or $x4734 (= cell_2_7 2) (= cell_2_7 3) (= cell_2_7 4) (= cell_2_7 5) (= cell_2_7 6) (= cell_2_7 7) (= cell_2_7 8) (= cell_2_7 9))))
(assert
 (let (($x5138 (= cell_3_7 1)))
 (or $x5138 (= cell_3_7 2) (= cell_3_7 3) (= cell_3_7 4) (= cell_3_7 5) (= cell_3_7 6) (= cell_3_7 7) (= cell_3_7 8) (= cell_3_7 9))))
(assert
 (let (($x1201 (= cell_4_7 9)))
 (let (($x3919 (= cell_4_7 8)))
 (let (($x3016 (= cell_4_7 7)))
 (let (($x3417 (= cell_4_7 6)))
 (let (($x1751 (= cell_4_7 5)))
 (let (($x1768 (= cell_4_7 4)))
 (let (($x327 (= cell_4_7 3)))
 (let (($x3634 (= cell_4_7 2)))
 (let (($x2435 (= cell_4_7 1)))
 (or $x2435 $x3634 $x327 $x1768 $x1751 $x3417 $x3016 $x3919 $x1201)))))))))))
(assert
 (let (($x2898 (= cell_5_7 1)))
 (or $x2898 (= cell_5_7 2) (= cell_5_7 3) (= cell_5_7 4) (= cell_5_7 5) (= cell_5_7 6) (= cell_5_7 7) (= cell_5_7 8) (= cell_5_7 9))))
(assert
 (let (($x582 (= cell_6_7 1)))
 (or $x582 (= cell_6_7 2) (= cell_6_7 3) (= cell_6_7 4) (= cell_6_7 5) (= cell_6_7 6) (= cell_6_7 7) (= cell_6_7 8) (= cell_6_7 9))))
(assert
 (or (= cell_7_7 1) (= cell_7_7 2) (= cell_7_7 3) (= cell_7_7 4) (= cell_7_7 5) (= cell_7_7 6) (= cell_7_7 7) (= cell_7_7 8) (= cell_7_7 9)))
(assert
 (or (= cell_8_7 1) (= cell_8_7 2) (= cell_8_7 3) (= cell_8_7 4) (= cell_8_7 5) (= cell_8_7 6) (= cell_8_7 7) (= cell_8_7 8) (= cell_8_7 9)))
(assert
 (or (= cell_9_7 1) (= cell_9_7 2) (= cell_9_7 3) (= cell_9_7 4) (= cell_9_7 5) (= cell_9_7 6) (= cell_9_7 7) (= cell_9_7 8) (= cell_9_7 9)))
(assert
 (let (($x6384 (= cell_1_8 1)))
 (or $x6384 (= cell_1_8 2) (= cell_1_8 3) (= cell_1_8 4) (= cell_1_8 5) (= cell_1_8 6) (= cell_1_8 7) (= cell_1_8 8) (= cell_1_8 9))))
(assert
 (let (($x3255 (= cell_2_8 1)))
 (or $x3255 (= cell_2_8 2) (= cell_2_8 3) (= cell_2_8 4) (= cell_2_8 5) (= cell_2_8 6) (= cell_2_8 7) (= cell_2_8 8) (= cell_2_8 9))))
(assert
 (let (($x826 (= cell_3_8 1)))
 (or $x826 (= cell_3_8 2) (= cell_3_8 3) (= cell_3_8 4) (= cell_3_8 5) (= cell_3_8 6) (= cell_3_8 7) (= cell_3_8 8) (= cell_3_8 9))))
(assert
 (let (($x1602 (= cell_4_8 9)))
 (let (($x3879 (= cell_4_8 8)))
 (let (($x5866 (= cell_4_8 7)))
 (let (($x638 (= cell_4_8 6)))
 (let (($x2942 (= cell_4_8 5)))
 (let (($x3563 (= cell_4_8 4)))
 (let (($x5102 (= cell_4_8 3)))
 (let (($x6343 (= cell_4_8 2)))
 (let (($x3935 (= cell_4_8 1)))
 (or $x3935 $x6343 $x5102 $x3563 $x2942 $x638 $x5866 $x3879 $x1602)))))))))))
(assert
 (let (($x1833 (= cell_5_8 1)))
 (or $x1833 (= cell_5_8 2) (= cell_5_8 3) (= cell_5_8 4) (= cell_5_8 5) (= cell_5_8 6) (= cell_5_8 7) (= cell_5_8 8) (= cell_5_8 9))))
(assert
 (let (($x3796 (= cell_6_8 1)))
 (or $x3796 (= cell_6_8 2) (= cell_6_8 3) (= cell_6_8 4) (= cell_6_8 5) (= cell_6_8 6) (= cell_6_8 7) (= cell_6_8 8) (= cell_6_8 9))))
(assert
 (let (($x6734 (= cell_7_8 1)))
 (or $x6734 (= cell_7_8 2) (= cell_7_8 3) (= cell_7_8 4) (= cell_7_8 5) (= cell_7_8 6) (= cell_7_8 7) (= cell_7_8 8) (= cell_7_8 9))))
(assert
 (let (($x6098 (= cell_8_8 1)))
 (or $x6098 (= cell_8_8 2) (= cell_8_8 3) (= cell_8_8 4) (= cell_8_8 5) (= cell_8_8 6) (= cell_8_8 7) (= cell_8_8 8) (= cell_8_8 9))))
(assert
 (let (($x724 (= cell_9_8 1)))
 (or $x724 (= cell_9_8 2) (= cell_9_8 3) (= cell_9_8 4) (= cell_9_8 5) (= cell_9_8 6) (= cell_9_8 7) (= cell_9_8 8) (= cell_9_8 9))))
(assert
 (let (($x3245 (= cell_1_9 9)))
 (let (($x3264 (= cell_1_9 8)))
 (let (($x1581 (= cell_1_9 7)))
 (let (($x4829 (= cell_1_9 6)))
 (let (($x3670 (= cell_1_9 5)))
 (let (($x5974 (= cell_1_9 4)))
 (let (($x2795 (= cell_1_9 3)))
 (let (($x2870 (= cell_1_9 2)))
 (let (($x111 (= cell_1_9 1)))
 (or $x111 $x2870 $x2795 $x5974 $x3670 $x4829 $x1581 $x3264 $x3245)))))))))))
(assert
 (let (($x6593 (= cell_2_9 9)))
 (let (($x3827 (= cell_2_9 8)))
 (let (($x6101 (= cell_2_9 7)))
 (let (($x1182 (= cell_2_9 6)))
 (let (($x107 (= cell_2_9 5)))
 (let (($x4021 (= cell_2_9 4)))
 (let (($x1835 (= cell_2_9 3)))
 (let (($x5678 (= cell_2_9 2)))
 (let (($x5060 (= cell_2_9 1)))
 (or $x5060 $x5678 $x1835 $x4021 $x107 $x1182 $x6101 $x3827 $x6593)))))))))))
(assert
 (let (($x3437 (= cell_3_9 9)))
 (let (($x1693 (= cell_3_9 8)))
 (let (($x126 (= cell_3_9 7)))
 (let (($x3914 (= cell_3_9 6)))
 (let (($x6597 (= cell_3_9 5)))
 (let (($x1380 (= cell_3_9 4)))
 (let (($x3611 (= cell_3_9 3)))
 (let (($x3539 (= cell_3_9 2)))
 (let (($x1814 (= cell_3_9 1)))
 (or $x1814 $x3539 $x3611 $x1380 $x6597 $x3914 $x126 $x1693 $x3437)))))))))))
(assert
 (let (($x2736 (= cell_4_9 1)))
 (or $x2736 (= cell_4_9 2) (= cell_4_9 3) (= cell_4_9 4) (= cell_4_9 5) (= cell_4_9 6) (= cell_4_9 7) (= cell_4_9 8) (= cell_4_9 9))))
(assert
 (let (($x982 (= cell_5_9 1)))
 (or $x982 (= cell_5_9 2) (= cell_5_9 3) (= cell_5_9 4) (= cell_5_9 5) (= cell_5_9 6) (= cell_5_9 7) (= cell_5_9 8) (= cell_5_9 9))))
(assert
 (let (($x4803 (= cell_6_9 1)))
 (or $x4803 (= cell_6_9 2) (= cell_6_9 3) (= cell_6_9 4) (= cell_6_9 5) (= cell_6_9 6) (= cell_6_9 7) (= cell_6_9 8) (= cell_6_9 9))))
(assert
 (let (($x189 (= cell_7_9 1)))
 (or $x189 (= cell_7_9 2) (= cell_7_9 3) (= cell_7_9 4) (= cell_7_9 5) (= cell_7_9 6) (= cell_7_9 7) (= cell_7_9 8) (= cell_7_9 9))))
(assert
 (let (($x894 (= cell_8_9 1)))
 (or $x894 (= cell_8_9 2) (= cell_8_9 3) (= cell_8_9 4) (= cell_8_9 5) (= cell_8_9 6) (= cell_8_9 7) (= cell_8_9 8) (= cell_8_9 9))))
(assert
 (let (($x4959 (= cell_9_9 1)))
 (or $x4959 (= cell_9_9 2) (= cell_9_9 3) (= cell_9_9 4) (= cell_9_9 5) (= cell_9_9 6) (= cell_9_9 7) (= cell_9_9 8) (= cell_9_9 9))))
(assert
 (and (distinct cell_1_1 cell_1_2 cell_1_3 cell_1_4 cell_1_5 cell_1_6 cell_1_7 cell_1_8 cell_1_9) true))
(assert
 (and (distinct cell_2_1 cell_2_2 cell_2_3 cell_2_4 cell_2_5 cell_2_6 cell_2_7 cell_2_8 cell_2_9) true))
(assert
 (and (distinct cell_3_1 cell_3_2 cell_3_3 cell_3_4 cell_3_5 cell_3_6 cell_3_7 cell_3_8 cell_3_9) true))
(assert
 (and (distinct cell_4_1 cell_4_2 cell_4_3 cell_4_4 cell_4_5 cell_4_6 cell_4_7 cell_4_8 cell_4_9) true))
(assert
 (and (distinct cell_5_1 cell_5_2 cell_5_3 cell_5_4 cell_5_5 cell_5_6 cell_5_7 cell_5_8 cell_5_9) true))
(assert
 (and (distinct cell_6_1 cell_6_2 cell_6_3 cell_6_4 cell_6_5 cell_6_6 cell_6_7 cell_6_8 cell_6_9) true))
(assert
 (and (distinct cell_7_1 cell_7_2 cell_7_3 cell_7_4 cell_7_5 cell_7_6 cell_7_7 cell_7_8 cell_7_9) true))
(assert
 (and (distinct cell_8_1 cell_8_2 cell_8_3 cell_8_4 cell_8_5 cell_8_6 cell_8_7 cell_8_8 cell_8_9) true))
(assert
 (and (distinct cell_9_1 cell_9_2 cell_9_3 cell_9_4 cell_9_5 cell_9_6 cell_9_7 cell_9_8 cell_9_9) true))
(assert
 (and (distinct cell_1_1 cell_2_1 cell_3_1 cell_4_1 cell_5_1 cell_6_1 cell_7_1 cell_8_1 cell_9_1) true))
(assert
 (and (distinct cell_1_2 cell_2_2 cell_3_2 cell_4_2 cell_5_2 cell_6_2 cell_7_2 cell_8_2 cell_9_2) true))
(assert
 (and (distinct cell_1_3 cell_2_3 cell_3_3 cell_4_3 cell_5_3 cell_6_3 cell_7_3 cell_8_3 cell_9_3) true))
(assert
 (and (distinct cell_1_4 cell_2_4 cell_3_4 cell_4_4 cell_5_4 cell_6_4 cell_7_4 cell_8_4 cell_9_4) true))
(assert
 (and (distinct cell_1_5 cell_2_5 cell_3_5 cell_4_5 cell_5_5 cell_6_5 cell_7_5 cell_8_5 cell_9_5) true))
(assert
 (and (distinct cell_1_6 cell_2_6 cell_3_6 cell_4_6 cell_5_6 cell_6_6 cell_7_6 cell_8_6 cell_9_6) true))
(assert
 (and (distinct cell_1_7 cell_2_7 cell_3_7 cell_4_7 cell_5_7 cell_6_7 cell_7_7 cell_8_7 cell_9_7) true))
(assert
 (and (distinct cell_1_8 cell_2_8 cell_3_8 cell_4_8 cell_5_8 cell_6_8 cell_7_8 cell_8_8 cell_9_8) true))
(assert
 (and (distinct cell_1_9 cell_2_9 cell_3_9 cell_4_9 cell_5_9 cell_6_9 cell_7_9 cell_8_9 cell_9_9) true))
(assert
 (and (distinct cell_1_1 cell_1_2 cell_1_3 cell_2_1 cell_2_2 cell_2_3 cell_3_1 cell_3_2 cell_3_3) true))
(assert
 (and (distinct cell_1_4 cell_1_5 cell_1_6 cell_2_4 cell_2_5 cell_2_6 cell_3_4 cell_3_5 cell_3_6) true))
(assert
 (and (distinct cell_1_7 cell_1_8 cell_1_9 cell_2_7 cell_2_8 cell_2_9 cell_3_7 cell_3_8 cell_3_9) true))
(assert
 (and (distinct cell_4_1 cell_4_2 cell_4_3 cell_5_1 cell_5_2 cell_5_3 cell_6_1 cell_6_2 cell_6_3) true))
(assert
 (and (distinct cell_4_4 cell_4_5 cell_4_6 cell_5_4 cell_5_5 cell_5_6 cell_6_4 cell_6_5 cell_6_6) true))
(assert
 (and (distinct cell_4_7 cell_4_8 cell_4_9 cell_5_7 cell_5_8 cell_5_9 cell_6_7 cell_6_8 cell_6_9) true))
(assert
 (and (distinct cell_7_1 cell_7_2 cell_7_3 cell_8_1 cell_8_2 cell_8_3 cell_9_1 cell_9_2 cell_9_3) true))
(assert
 (and (distinct cell_7_4 cell_7_5 cell_7_6 cell_8_4 cell_8_5 cell_8_6 cell_9_4 cell_9_5 cell_9_6) true))
(assert
 (and (distinct cell_7_7 cell_7_8 cell_7_9 cell_8_7 cell_8_8 cell_8_9 cell_9_7 cell_9_8 cell_9_9) true))
(assert
 (let (($x1709 (and (distinct cell_5_9 cell_6_8 cell_7_7 cell_8_6) true)))
 (let (($x3776 (and (distinct cell_2_9 cell_3_8 cell_4_7 cell_5_6 cell_6_5 cell_7_4 cell_8_3 cell_9_2) true)))
 (let (($x3416 (and (distinct cell_1_8 cell_2_7 cell_3_6 cell_4_5 cell_5_4 cell_6_3 cell_7_2 cell_8_1) true)))
 (let (($x1949 (and (distinct cell_1_5 cell_2_4 cell_3_3 cell_4_2) true)))
 (let (($x2407 (and (distinct cell_5_1 cell_6_2 cell_7_3 cell_8_4) true)))
 (let (($x426 (and (distinct cell_2_1 cell_3_2 cell_4_3 cell_5_4 cell_6_5 cell_7_6 cell_8_7 cell_9_8) true)))
 (let (($x6274 (and (distinct cell_1_2 cell_2_3 cell_3_4 cell_4_5 cell_5_6 cell_6_7 cell_7_8 cell_8_9) true)))
 (let (($x3446 (and (distinct cell_1_5 cell_2_6 cell_3_7 cell_4_8) true)))
 (and $x3446 $x6274 $x426 $x2407 $x1949 $x3416 $x3776 $x1709))))))))))
(assert
 (and (distinct cell_6_5 1) true))
(check-sat)
